
Gurobi 12.0.0 (win64) logging started Wed May 13 21:49:44 2026

Set parameter LogFile to value "C:\Users\Asus\Documents\GitHub\internal-logistics-model2\internal-logistics-model2\results\SR_SV_RD\case2\result_SR_SV_RD_case2_P5_eps9999_2026_05_13_21_49.log"
Gurobi Optimizer version 12.0.0 build v12.0.0rc1 (win64 - Windows 10.0 (19045.2))

CPU model: 12th Gen Intel(R) Core(TM) i7-12650H, instruction set [SSE2|AVX|AVX2]
Thread count: 10 physical cores, 16 logical processors, using up to 16 threads

Non-default parameters:
TimeLimit  1200
MIPGap  0.01
Presolve  2

Optimize a model with 410 rows, 133 columns and 1831 nonzeros
Model fingerprint: 0x7cf37527
Variable types: 48 continuous, 85 integer (77 binary)
Coefficient statistics:
  Matrix range     [1e+00, 5e+02]
  Objective range  [1e-03, 1e+00]
  Bounds range     [1e+00, 5e+02]
  RHS range        [1e+00, 1e+04]
Presolve removed 166 rows and 50 columns
Presolve time: 0.01s
Presolved: 244 rows, 83 columns, 1300 nonzeros
Variable types: 22 continuous, 61 integer (53 binary)
Found heuristic solution: objective 90.1710000
Root relaxation presolve removed 1 rows and 0 columns
Root relaxation presolved: 243 rows, 83 columns, 1293 nonzeros


Root relaxation: objective 5.503500e+01, 40 iterations, 0.00 seconds (0.00 work units)

    Nodes    |    Current Node    |     Objective Bounds      |     Work
 Expl Unexpl |  Obj  Depth IntInf | Incumbent    BestBd   Gap | It/Node Time

     0     0   55.03500    0    6   90.17100   55.03500  39.0%     -    0s
H    0     0                      86.1650000   55.03500  36.1%     -    0s
H    0     0                      80.1430000   55.03500  31.3%     -    0s
     0     0   55.03500    0   23   80.14300   55.03500  31.3%     -    0s
H    0     0                      79.1590000   55.03500  30.5%     -    0s
H    0     0                      74.1120000   55.03500  25.7%     -    0s
H    0     0                      67.0850000   55.03500  18.0%     -    0s
     0     0   55.03500    0   23   67.08500   55.03500  18.0%     -    0s
     0     0   55.03555    0   23   67.08500   55.03555  18.0%     -    0s
     0     0   55.04140    0   27   67.08500   55.04140  18.0%     -    0s
     0     0   55.04248    0   33   67.08500   55.04248  18.0%     -    0s
     0     0   55.04523    0   35   67.08500   55.04523  17.9%     -    0s
     0     0   55.04528    0   35   67.08500   55.04528  17.9%     -    0s
     0     0   55.04736    0   33   67.08500   55.04736  17.9%     -    0s
     0     0   55.04801    0   36   67.08500   55.04801  17.9%     -    0s
     0     0   55.05038    0   36   67.08500   55.05038  17.9%     -    0s
     0     0   55.05038    0   37   67.08500   55.05038  17.9%     -    0s
     0     0   55.05070    0   39   67.08500   55.05070  17.9%     -    0s
     0     0   55.05070    0   39   67.08500   55.05070  17.9%     -    0s
     0     0   55.05107    0   40   67.08500   55.05107  17.9%     -    0s
     0     0   55.05107    0   40   67.08500   55.05107  17.9%     -    0s
     0     0   55.05553    0   41   67.08500   55.05553  17.9%     -    0s
     0     0   55.05553    0   44   67.08500   55.05553  17.9%     -    0s
     0     0   55.05656    0   39   67.08500   55.05656  17.9%     -    0s
     0     0   55.05656    0   34   67.08500   55.05656  17.9%     -    0s
     0     2   55.05656    0   34   67.08500   55.05656  17.9%     -    0s

Cutting planes:
  Learned: 3
  Cover: 2
  Implied bound: 37
  MIR: 36
  Inf proof: 1
  RLT: 7
  Relax-and-lift: 26

Explored 544 nodes (6879 simplex iterations) in 0.16 seconds (0.12 work units)
Thread count was 16 (of 16 available processors)

Solution count 6: 67.085 74.112 79.159 ... 90.171

Optimal solution found (tolerance 1.00e-02)
Best objective 6.708500000000e+01, best bound 6.708500000000e+01, gap 0.0000%
